55 30 27 83 37 80 5 99 49 92 89 14 86 65 38 13 67 33 36 15 70 68 91 75 6 74 84 1 47 57 32 35 23 79 53 95 26 9 45 22 2 56 87 48 29 4 16 94 8 62 73 3 18 88 82 54 12 17 50 59 90 46 11 39 31 7 98 52 58 64 28 63 42 25 21 71 43 93 0 97 60 78 51 44 81 10 20 66 72 24 34 96 61 40 41 69 19 85 77 76 

